Maximize
 obj:  15x1 +15x2 +  27y1 +27y2
Subject To
 c1:   10x1         +  16y1         <=  6400
 c2:           10x2         +  16y2 <=  8000
 c3:                     y1 +    y2 <=   800
 c4:   30x1 +          48y1         <= 23800
 c5: - 15x1 +  30x2 -  27y1 +  48y2 <= 23800
Bounds

End
